c User generated cnf file
p cnf 12 46
9 2 -8 0 
2 -5 8 0 
3 -1 10 0 
-6 6 2 0 
4 -5 4 0 
8 9 -4 0 
-8 5 10 0 
-9 12 7 0 
2 4 -6 0 
11 -5 7 0 
-6 2 11 0 
4 3 -5 0 
10 -9 4 0 
7 8 -11 0 
2 -1 9 0 
2 12 -1 0 
-6 9 7 0 
-5 4 3 0 
-7 11 5 0 
6 -2 4 0 
3 9 -7 0 
4 -7 3 0 
7 12 -10 0 
12 -12 6 0 
1 1 -8 0 
-11 10 2 0 
-10 12 6 0 
-5 1 2 0 
7 -7 7 0 
5 -6 11 0 
-7 5 5 0 
-11 10 10 0 
6 5 -6 0 
1 -4 3 0 
6 12 -10 0 
12 11 -3 0 
9 -7 1 0 
2 -10 6 0 
1 1 -1 0 
-9 12 3 0 
1 -8 9 0 
10 -4 6 0 
-5 7 6 0 
10 7 -5 0 
3 7 -7 0 
2 10 -5 0 
